(set-info :source |printed by MathSAT|)

1 (27) @37:
(assert true)

27 (36) @42:
(assert true)

36 (45) @42:
(assert true)

45 (51) @42:
(assert true)

51 (54) @42:
(assert true)

54 (57) @42:
(assert true)

57 (60) @42:
(assert true)

60 () @42:
(assert true)

